p cnf 762 2493
2 -5 51 0
-2 -5 -51 0
2 5 -51 0
-2 5 51 0
-6 8 52 0
6 8 -52 0
-6 -8 -52 0
6 -8 52 0
9 11 53 0
-9 11 -53 0
9 -11 -53 0
-9 -11 53 0
-13 16 54 0
13 16 -54 0
-13 -16 -54 0
13 -16 54 0
-21 -22 55 0
21 -22 -55 0
-21 22 -55 0
21 22 55 0
-23 -24 56 0
23 -24 -56 0
-23 24 -56 0
23 24 56 0
-26 27 57 0
26 27 -57 0
-26 -27 -57 0
26 -27 57 0
-32 -35 58 0
32 -35 -58 0
-32 35 -58 0
32 35 58 0
36 37 59 0
-36 37 -59 0
36 -37 -59 0
-36 -37 59 0
38 40 60 0
-38 40 -60 0
38 -40 -60 0
-38 -40 60 0
-41 43 61 0
41 43 -61 0
-41 -43 -61 0
41 -43 61 0
-47 -48 62 0
47 -48 -62 0
-47 48 -62 0
47 48 62 0
50 -51 63 0
-50 -51 -63 0
50 51 -63 0
-50 51 63 0
52 -53 64 0
-52 -53 -64 0
52 53 -64 0
-52 53 64 0
54 -55 65 0
-54 -55 -65 0
54 55 -65 0
-54 55 65 0
56 -57 66 0
-56 -57 -66 0
56 57 -66 0
-56 57 66 0
58 -59 67 0
-58 -59 -67 0
58 59 -67 0
-58 59 67 0
60 -61 68 0
-60 -61 -68 0
60 61 -68 0
-60 61 68 0
62 -63 69 0
-62 -63 -69 0
62 63 -69 0
-62 63 69 0
64 -65 70 0
-64 -65 -70 0
64 65 -70 0
-64 65 70 0
66 -67 71 0
-66 -67 -71 0
66 67 -71 0
-66 67 71 0
68 -69 72 0
-68 -69 -72 0
68 69 -72 0
-68 69 72 0
70 -71 73 0
-70 -71 -73 0
70 71 -73 0
-70 71 73 0
72 73 0
-72 -73 0
-1 -2 74 0
1 -2 -74 0
-1 2 -74 0
1 2 74 0
3 5 75 0
-3 5 -75 0
3 -5 -75 0
-3 -5 75 0
6 -7 76 0
-6 -7 -76 0
6 7 -76 0
-6 7 76 0
8 9 77 0
-8 9 -77 0
8 -9 -77 0
-8 -9 77 0
-11 14 78 0
11 14 -78 0
-11 -14 -78 0
11 -14 78 0
-15 16 79 0
15 16 -79 0
-15 -16 -79 0
15 -16 79 0
-19 -21 80 0
19 -21 -80 0
-19 21 -80 0
19 21 80 0
-23 25 81 0
23 25 -81 0
-23 -25 -81 0
23 -25 81 0
28 30 82 0
-28 30 -82 0
28 -30 -82 0
-28 -30 82 0
31 33 83 0
-31 33 -83 0
31 -33 -83 0
-31 -33 83 0
34 35 84 0
-34 35 -84 0
34 -35 -84 0
-34 -35 84 0
-36 -37 85 0
36 -37 -85 0
-36 37 -85 0
36 37 85 0
-38 41 86 0
38 41 -86 0
-38 -41 -86 0
38 -41 86 0
73 -74 87 0
-73 -74 -87 0
73 74 -87 0
-73 74 87 0
75 -76 88 0
-75 -76 -88 0
75 76 -88 0
-75 76 88 0
77 -78 89 0
-77 -78 -89 0
77 78 -89 0
-77 78 89 0
79 -80 90 0
-79 -80 -90 0
79 80 -90 0
-79 80 90 0
81 -82 91 0
-81 -82 -91 0
81 82 -91 0
-81 82 91 0
83 -84 92 0
-83 -84 -92 0
83 84 -92 0
-83 84 92 0
85 -86 93 0
-85 -86 -93 0
85 86 -93 0
-85 86 93 0
87 -88 94 0
-87 -88 -94 0
87 88 -94 0
-87 88 94 0
89 -90 95 0
-89 -90 -95 0
89 90 -95 0
-89 90 95 0
91 -92 96 0
-91 -92 -96 0
91 92 -96 0
-91 92 96 0
93 -94 97 0
-93 -94 -97 0
93 94 -97 0
-93 94 97 0
95 -96 98 0
-95 -96 -98 0
95 96 -98 0
-95 96 98 0
97 98 0
-97 -98 0
1 -4 99 0
-1 -4 -99 0
1 4 -99 0
-1 4 99 0
5 -6 100 0
-5 -6 -100 0
5 6 -100 0
-5 6 100 0
9 -12 101 0
-9 -12 -101 0
9 12 -101 0
-9 12 101 0
13 -14 102 0
-13 -14 -102 0
13 14 -102 0
-13 14 102 0
17 -19 103 0
-17 -19 -103 0
17 19 -103 0
-17 19 103 0
20 -21 104 0
-20 -21 -104 0
20 21 -104 0
-20 21 104 0
-22 -23 105 0
22 -23 -105 0
-22 23 -105 0
22 23 105 0
25 -27 106 0
-25 -27 -106 0
25 27 -106 0
-25 27 106 0
31 42 107 0
-31 42 -107 0
31 -42 -107 0
-31 -42 107 0
46 49 108 0
-46 49 -108 0
46 -49 -108 0
-46 -49 108 0
99 -100 109 0
-99 -100 -109 0
99 100 -109 0
-99 100 109 0
101 -102 110 0
-101 -102 -110 0
101 102 -110 0
-101 102 110 0
103 -104 111 0
-103 -104 -111 0
103 104 -111 0
-103 104 111 0
105 -106 112 0
-105 -106 -112 0
105 106 -112 0
-105 106 112 0
107 -108 113 0
-107 -108 -113 0
107 108 -113 0
-107 108 113 0
109 -110 114 0
-109 -110 -114 0
109 110 -114 0
-109 110 114 0
111 -112 115 0
-111 -112 -115 0
111 112 -115 0
-111 112 115 0
-113 -114 115 0
113 -114 -115 0
-113 114 -115 0
113 114 115 0
1 2 116 0
-1 2 -116 0
1 -2 -116 0
-1 -2 116 0
5 -6 117 0
-5 -6 -117 0
5 6 -117 0
-5 6 117 0
-9 10 118 0
9 10 -118 0
-9 -10 -118 0
9 -10 118 0
11 -14 119 0
-11 -14 -119 0
11 14 -119 0
-11 14 119 0
-15 16 120 0
15 16 -120 0
-15 -16 -120 0
15 -16 120 0
-20 -21 121 0
20 -21 -121 0
-20 21 -121 0
20 21 121 0
23 -26 122 0
-23 -26 -122 0
23 26 -122 0
-23 26 122 0
-27 28 123 0
27 28 -123 0
-27 -28 -123 0
27 -28 123 0
-30 -31 124 0
30 -31 -124 0
-30 31 -124 0
30 31 124 0
32 33 125 0
-32 33 -125 0
32 -33 -125 0
-32 -33 125 0
38 -40 126 0
-38 -40 -126 0
38 40 -126 0
-38 40 126 0
41 -42 127 0
-41 -42 -127 0
41 42 -127 0
-41 42 127 0
44 45 128 0
-44 45 -128 0
44 -45 -128 0
-44 -45 128 0
115 -116 129 0
-115 -116 -129 0
115 116 -129 0
-115 116 129 0
117 -118 130 0
-117 -118 -130 0
117 118 -130 0
-117 118 130 0
119 -120 131 0
-119 -120 -131 0
119 120 -131 0
-119 120 131 0
121 -122 132 0
-121 -122 -132 0
121 122 -132 0
-121 122 132 0
123 -124 133 0
-123 -124 -133 0
123 124 -133 0
-123 124 133 0
125 -126 134 0
-125 -126 -134 0
125 126 -134 0
-125 126 134 0
127 -128 135 0
-127 -128 -135 0
127 128 -135 0
-127 128 135 0
129 -130 136 0
-129 -130 -136 0
129 130 -136 0
-129 130 136 0
131 -132 137 0
-131 -132 -137 0
131 132 -137 0
-131 132 137 0
133 -134 138 0
-133 -134 -138 0
133 134 -138 0
-133 134 138 0
135 -136 139 0
-135 -136 -139 0
135 136 -139 0
-135 136 139 0
137 -138 140 0
-137 -138 -140 0
137 138 -140 0
-137 138 140 0
139 140 0
-139 -140 0
2 -4 141 0
-2 -4 -141 0
2 4 -141 0
-2 4 141 0
-7 8 142 0
7 8 -142 0
-7 -8 -142 0
7 -8 142 0
10 11 143 0
-10 11 -143 0
10 -11 -143 0
-10 -11 143 0
13 -14 144 0
-13 -14 -144 0
13 14 -144 0
-13 14 144 0
-15 19 145 0
15 19 -145 0
-15 -19 -145 0
15 -19 145 0
22 -23 146 0
-22 -23 -146 0
22 23 -146 0
-22 23 146 0
-24 -26 147 0
24 -26 -147 0
-24 26 -147 0
24 26 147 0
30 -31 148 0
-30 -31 -148 0
30 31 -148 0
-30 31 148 0
-36 37 149 0
36 37 -149 0
-36 -37 -149 0
36 -37 149 0
38 39 150 0
-38 39 -150 0
38 -39 -150 0
-38 -39 150 0
40 -42 151 0
-40 -42 -151 0
40 42 -151 0
-40 42 151 0
-43 -46 152 0
43 -46 -152 0
-43 46 -152 0
43 46 152 0
140 -141 153 0
-140 -141 -153 0
140 141 -153 0
-140 141 153 0
142 -143 154 0
-142 -143 -154 0
142 143 -154 0
-142 143 154 0
144 -145 155 0
-144 -145 -155 0
144 145 -155 0
-144 145 155 0
146 -147 156 0
-146 -147 -156 0
146 147 -156 0
-146 147 156 0
148 -149 157 0
-148 -149 -157 0
148 149 -157 0
-148 149 157 0
150 -151 158 0
-150 -151 -158 0
150 151 -158 0
-150 151 158 0
152 -153 159 0
-152 -153 -159 0
152 153 -159 0
-152 153 159 0
154 -155 160 0
-154 -155 -160 0
154 155 -160 0
-154 155 160 0
156 -157 161 0
-156 -157 -161 0
156 157 -161 0
-156 157 161 0
158 -159 162 0
-158 -159 -162 0
158 159 -162 0
-158 159 162 0
160 -161 163 0
-160 -161 -163 0
160 161 -163 0
-160 161 163 0
162 163 0
-162 -163 0
-2 3 164 0
2 3 -164 0
-2 -3 -164 0
2 -3 164 0
4 5 165 0
-4 5 -165 0
4 -5 -165 0
-4 -5 165 0
-6 8 166 0
6 8 -166 0
-6 -8 -166 0
6 -8 166 0
-11 -14 167 0
11 -14 -167 0
-11 14 -167 0
11 14 167 0
15 16 168 0
-15 16 -168 0
15 -16 -168 0
-15 -16 168 0
17 18 169 0
-17 18 -169 0
17 -18 -169 0
-17 -18 169 0
-19 -20 170 0
19 -20 -170 0
-19 20 -170 0
19 20 170 0
21 22 171 0
-21 22 -171 0
21 -22 -171 0
-21 -22 171 0
27 -29 172 0
-27 -29 -172 0
27 29 -172 0
-27 29 172 0
-31 -33 173 0
31 -33 -173 0
-31 33 -173 0
31 33 173 0
-36 37 174 0
36 37 -174 0
-36 -37 -174 0
36 -37 174 0
-38 -39 175 0
38 -39 -175 0
-38 39 -175 0
38 39 175 0
42 44 176 0
-42 44 -176 0
42 -44 -176 0
-42 -44 176 0
45 46 177 0
-45 46 -177 0
45 -46 -177 0
-45 -46 177 0
49 -50 178 0
-49 -50 -178 0
49 50 -178 0
-49 50 178 0
164 -165 179 0
-164 -165 -179 0
164 165 -179 0
-164 165 179 0
166 -167 180 0
-166 -167 -180 0
166 167 -180 0
-166 167 180 0
168 -169 181 0
-168 -169 -181 0
168 169 -181 0
-168 169 181 0
170 -171 182 0
-170 -171 -182 0
170 171 -182 0
-170 171 182 0
172 -173 183 0
-172 -173 -183 0
172 173 -183 0
-172 173 183 0
174 -175 184 0
-174 -175 -184 0
174 175 -184 0
-174 175 184 0
176 -177 185 0
-176 -177 -185 0
176 177 -185 0
-176 177 185 0
178 -179 186 0
-178 -179 -186 0
178 179 -186 0
-178 179 186 0
180 -181 187 0
-180 -181 -187 0
180 181 -187 0
-180 181 187 0
182 -183 188 0
-182 -183 -188 0
182 183 -188 0
-182 183 188 0
184 -185 189 0
-184 -185 -189 0
184 185 -189 0
-184 185 189 0
186 -187 190 0
-186 -187 -190 0
186 187 -190 0
-186 187 190 0
188 -189 191 0
-188 -189 -191 0
188 189 -191 0
-188 189 191 0
190 191 0
-190 -191 0
1 2 192 0
-1 2 -192 0
1 -2 -192 0
-1 -2 192 0
5 6 193 0
-5 6 -193 0
5 -6 -193 0
-5 -6 193 0
-11 -13 194 0
11 -13 -194 0
-11 13 -194 0
11 13 194 0
-14 15 195 0
14 15 -195 0
-14 -15 -195 0
14 -15 195 0
-16 -18 196 0
16 -18 -196 0
-16 18 -196 0
16 18 196 0
-20 21 197 0
20 21 -197 0
-20 -21 -197 0
20 -21 197 0
-22 -26 198 0
22 -26 -198 0
-22 26 -198 0
22 26 198 0
-27 28 199 0
27 28 -199 0
-27 -28 -199 0
27 -28 199 0
-33 34 200 0
33 34 -200 0
-33 -34 -200 0
33 -34 200 0
35 -39 201 0
-35 -39 -201 0
35 39 -201 0
-35 39 201 0
-41 -43 202 0
41 -43 -202 0
-41 43 -202 0
41 43 202 0
-45 46 203 0
45 46 -203 0
-45 -46 -203 0
45 -46 203 0
48 50 204 0
-48 50 -204 0
48 -50 -204 0
-48 -50 204 0
192 -193 205 0
-192 -193 -205 0
192 193 -205 0
-192 193 205 0
194 -195 206 0
-194 -195 -206 0
194 195 -206 0
-194 195 206 0
196 -197 207 0
-196 -197 -207 0
196 197 -207 0
-196 197 207 0
198 -199 208 0
-198 -199 -208 0
198 199 -208 0
-198 199 208 0
200 -201 209 0
-200 -201 -209 0
200 201 -209 0
-200 201 209 0
202 -203 210 0
-202 -203 -210 0
202 203 -210 0
-202 203 210 0
204 -205 211 0
-204 -205 -211 0
204 205 -211 0
-204 205 211 0
206 -207 212 0
-206 -207 -212 0
206 207 -212 0
-206 207 212 0
208 -209 213 0
-208 -209 -213 0
208 209 -213 0
-208 209 213 0
210 -211 214 0
-210 -211 -214 0
210 211 -214 0
-210 211 214 0
212 -213 215 0
-212 -213 -215 0
212 213 -215 0
-212 213 215 0
214 215 0
-214 -215 0
1 4 216 0
-1 4 -216 0
1 -4 -216 0
-1 -4 216 0
6 -8 217 0
-6 -8 -217 0
6 8 -217 0
-6 8 217 0
-9 -10 218 0
9 -10 -218 0
-9 10 -218 0
9 10 218 0
12 14 219 0
-12 14 -219 0
12 -14 -219 0
-12 -14 219 0
-15 16 220 0
15 16 -220 0
-15 -16 -220 0
15 -16 220 0
-17 -18 221 0
17 -18 -221 0
-17 18 -221 0
17 18 221 0
-20 21 222 0
20 21 -222 0
-20 -21 -222 0
20 -21 222 0
-24 -27 223 0
24 -27 -223 0
-24 27 -223 0
24 27 223 0
30 -32 224 0
-30 -32 -224 0
30 32 -224 0
-30 32 224 0
33 -38 225 0
-33 -38 -225 0
33 38 -225 0
-33 38 225 0
39 -40 226 0
-39 -40 -226 0
39 40 -226 0
-39 40 226 0
-41 43 227 0
41 43 -227 0
-41 -43 -227 0
41 -43 227 0
-44 48 228 0
44 48 -228 0
-44 -48 -228 0
44 -48 228 0
216 -217 229 0
-216 -217 -229 0
216 217 -229 0
-216 217 229 0
218 -219 230 0
-218 -219 -230 0
218 219 -230 0
-218 219 230 0
220 -221 231 0
-220 -221 -231 0
220 221 -231 0
-220 221 231 0
222 -223 232 0
-222 -223 -232 0
222 223 -232 0
-222 223 232 0
224 -225 233 0
-224 -225 -233 0
224 225 -233 0
-224 225 233 0
226 -227 234 0
-226 -227 -234 0
226 227 -234 0
-226 227 234 0
228 -229 235 0
-228 -229 -235 0
228 229 -235 0
-228 229 235 0
230 -231 236 0
-230 -231 -236 0
230 231 -236 0
-230 231 236 0
232 -233 237 0
-232 -233 -237 0
232 233 -237 0
-232 233 237 0
234 -235 238 0
-234 -235 -238 0
234 235 -238 0
-234 235 238 0
236 -237 239 0
-236 -237 -239 0
236 237 -239 0
-236 237 239 0
238 239 0
-238 -239 0
2 4 240 0
-2 4 -240 0
2 -4 -240 0
-2 -4 240 0
5 6 241 0
-5 6 -241 0
5 -6 -241 0
-5 -6 241 0
7 -12 242 0
-7 -12 -242 0
7 12 -242 0
-7 12 242 0
-13 -15 243 0
13 -15 -243 0
-13 15 -243 0
13 15 243 0
22 23 244 0
-22 23 -244 0
22 -23 -244 0
-22 -23 244 0
-24 -25 245 0
24 -25 -245 0
-24 25 -245 0
24 25 245 0
27 -28 246 0
-27 -28 -246 0
27 28 -246 0
-27 28 246 0
30 -32 247 0
-30 -32 -247 0
30 32 -247 0
-30 32 247 0
34 -37 248 0
-34 -37 -248 0
34 37 -248 0
-34 37 248 0
38 42 249 0
-38 42 -249 0
38 -42 -249 0
-38 -42 249 0
-46 47 250 0
46 47 -250 0
-46 -47 -250 0
46 -47 250 0
-48 -49 251 0
48 -49 -251 0
-48 49 -251 0
48 49 251 0
240 -241 252 0
-240 -241 -252 0
240 241 -252 0
-240 241 252 0
242 -243 253 0
-242 -243 -253 0
242 243 -253 0
-242 243 253 0
244 -245 254 0
-244 -245 -254 0
244 245 -254 0
-244 245 254 0
246 -247 255 0
-246 -247 -255 0
246 247 -255 0
-246 247 255 0
248 -249 256 0
-248 -249 -256 0
248 249 -256 0
-248 249 256 0
250 -251 257 0
-250 -251 -257 0
250 251 -257 0
-250 251 257 0
252 -253 258 0
-252 -253 -258 0
252 253 -258 0
-252 253 258 0
254 -255 259 0
-254 -255 -259 0
254 255 -259 0
-254 255 259 0
256 -257 260 0
-256 -257 -260 0
256 257 -260 0
-256 257 260 0
-258 -259 260 0
258 -259 -260 0
-258 259 -260 0
258 259 260 0
1 2 261 0
-1 2 -261 0
1 -2 -261 0
-1 -2 261 0
-3 5 262 0
3 5 -262 0
-3 -5 -262 0
3 -5 262 0
-6 7 263 0
6 7 -263 0
-6 -7 -263 0
6 -7 263 0
8 -16 264 0
-8 -16 -264 0
8 16 -264 0
-8 16 264 0
17 -18 265 0
-17 -18 -265 0
17 18 -265 0
-17 18 265 0
-19 -20 266 0
19 -20 -266 0
-19 20 -266 0
19 20 266 0
21 -22 267 0
-21 -22 -267 0
21 22 -267 0
-21 22 267 0
24 27 268 0
-24 27 -268 0
24 -27 -268 0
-24 -27 268 0
32 35 269 0
-32 35 -269 0
32 -35 -269 0
-32 -35 269 0
36 -38 270 0
-36 -38 -270 0
36 38 -270 0
-36 38 270 0
-43 -48 271 0
43 -48 -271 0
-43 48 -271 0
43 48 271 0
261 -262 272 0
-261 -262 -272 0
261 262 -272 0
-261 262 272 0
263 -264 273 0
-263 -264 -273 0
263 264 -273 0
-263 264 273 0
265 -266 274 0
-265 -266 -274 0
265 266 -274 0
-265 266 274 0
267 -268 275 0
-267 -268 -275 0
267 268 -275 0
-267 268 275 0
269 -270 276 0
-269 -270 -276 0
269 270 -276 0
-269 270 276 0
271 -272 277 0
-271 -272 -277 0
271 272 -277 0
-271 272 277 0
273 -274 278 0
-273 -274 -278 0
273 274 -278 0
-273 274 278 0
275 -276 279 0
-275 -276 -279 0
275 276 -279 0
-275 276 279 0
-277 -278 279 0
277 -278 -279 0
-277 278 -279 0
277 278 279 0
1 2 280 0
-1 2 -280 0
1 -2 -280 0
-1 -2 280 0
3 4 281 0
-3 4 -281 0
3 -4 -281 0
-3 -4 281 0
5 -7 282 0
-5 -7 -282 0
5 7 -282 0
-5 7 282 0
-8 9 283 0
8 9 -283 0
-8 -9 -283 0
8 -9 283 0
11 -12 284 0
-11 -12 -284 0
11 12 -284 0
-11 12 284 0
15 16 285 0
-15 16 -285 0
15 -16 -285 0
-15 -16 285 0
17 21 286 0
-17 21 -286 0
17 -21 -286 0
-17 -21 286 0
22 -23 287 0
-22 -23 -287 0
22 23 -287 0
-22 23 287 0
24 25 288 0
-24 25 -288 0
24 -25 -288 0
-24 -25 288 0
26 27 289 0
-26 27 -289 0
26 -27 -289 0
-26 -27 289 0
-28 31 290 0
28 31 -290 0
-28 -31 -290 0
28 -31 290 0
32 -35 291 0
-32 -35 -291 0
32 35 -291 0
-32 35 291 0
-38 -40 292 0
38 -40 -292 0
-38 40 -292 0
38 40 292 0
42 -43 293 0
-42 -43 -293 0
42 43 -293 0
-42 43 293 0
-46 -50 294 0
46 -50 -294 0
-46 50 -294 0
46 50 294 0
280 -281 295 0
-280 -281 -295 0
280 281 -295 0
-280 281 295 0
282 -283 296 0
-282 -283 -296 0
282 283 -296 0
-282 283 296 0
284 -285 297 0
-284 -285 -297 0
284 285 -297 0
-284 285 297 0
286 -287 298 0
-286 -287 -298 0
286 287 -298 0
-286 287 298 0
288 -289 299 0
-288 -289 -299 0
288 289 -299 0
-288 289 299 0
290 -291 300 0
-290 -291 -300 0
290 291 -300 0
-290 291 300 0
292 -293 301 0
-292 -293 -301 0
292 293 -301 0
-292 293 301 0
294 -295 302 0
-294 -295 -302 0
294 295 -302 0
-294 295 302 0
296 -297 303 0
-296 -297 -303 0
296 297 -303 0
-296 297 303 0
298 -299 304 0
-298 -299 -304 0
298 299 -304 0
-298 299 304 0
300 -301 305 0
-300 -301 -305 0
300 301 -305 0
-300 301 305 0
302 -303 306 0
-302 -303 -306 0
302 303 -306 0
-302 303 306 0
304 -305 307 0
-304 -305 -307 0
304 305 -307 0
-304 305 307 0
306 307 0
-306 -307 0
1 -5 308 0
-1 -5 -308 0
1 5 -308 0
-1 5 308 0
-7 -11 309 0
7 -11 -309 0
-7 11 -309 0
7 11 309 0
-19 21 310 0
19 21 -310 0
-19 -21 -310 0
19 -21 310 0
23 24 311 0
-23 24 -311 0
23 -24 -311 0
-23 -24 311 0
-28 -31 312 0
28 -31 -312 0
-28 31 -312 0
28 31 312 0
-33 35 313 0
33 35 -313 0
-33 -35 -313 0
33 -35 313 0
38 39 314 0
-38 39 -314 0
38 -39 -314 0
-38 -39 314 0
-42 -43 315 0
42 -43 -315 0
-42 43 -315 0
42 43 315 0
46 -49 316 0
-46 -49 -316 0
46 49 -316 0
-46 49 316 0
308 -309 317 0
-308 -309 -317 0
308 309 -317 0
-308 309 317 0
310 -311 318 0
-310 -311 -318 0
310 311 -318 0
-310 311 318 0
312 -313 319 0
-312 -313 -319 0
312 313 -319 0
-312 313 319 0
314 -315 320 0
-314 -315 -320 0
314 315 -320 0
-314 315 320 0
316 -317 321 0
-316 -317 -321 0
316 317 -321 0
-316 317 321 0
318 -319 322 0
-318 -319 -322 0
318 319 -322 0
-318 319 322 0
-320 -321 322 0
320 -321 -322 0
-320 321 -322 0
320 321 322 0
-1 3 323 0
1 3 -323 0
-1 -3 -323 0
1 -3 323 0
4 -7 324 0
-4 -7 -324 0
4 7 -324 0
-4 7 324 0
9 10 325 0
-9 10 -325 0
9 -10 -325 0
-9 -10 325 0
-11 12 326 0
11 12 -326 0
-11 -12 -326 0
11 -12 326 0
14 -15 327 0
-14 -15 -327 0
14 15 -327 0
-14 15 327 0
16 17 328 0
-16 17 -328 0
16 -17 -328 0
-16 -17 328 0
18 22 329 0
-18 22 -329 0
18 -22 -329 0
-18 -22 329 0
23 24 330 0
-23 24 -330 0
23 -24 -330 0
-23 -24 330 0
25 -26 331 0
-25 -26 -331 0
25 26 -331 0
-25 26 331 0
27 29 332 0
-27 29 -332 0
27 -29 -332 0
-27 -29 332 0
-30 32 333 0
30 32 -333 0
-30 -32 -333 0
30 -32 333 0
-33 -34 334 0
33 -34 -334 0
-33 34 -334 0
33 34 334 0
36 39 335 0
-36 39 -335 0
36 -39 -335 0
-36 -39 335 0
40 -42 336 0
-40 -42 -336 0
40 42 -336 0
-40 42 336 0
43 -47 337 0
-43 -47 -337 0
43 47 -337 0
-43 47 337 0
322 -323 338 0
-322 -323 -338 0
322 323 -338 0
-322 323 338 0
324 -325 339 0
-324 -325 -339 0
324 325 -339 0
-324 325 339 0
326 -327 340 0
-326 -327 -340 0
326 327 -340 0
-326 327 340 0
328 -329 341 0
-328 -329 -341 0
328 329 -341 0
-328 329 341 0
330 -331 342 0
-330 -331 -342 0
330 331 -342 0
-330 331 342 0
332 -333 343 0
-332 -333 -343 0
332 333 -343 0
-332 333 343 0
334 -335 344 0
-334 -335 -344 0
334 335 -344 0
-334 335 344 0
336 -337 345 0
-336 -337 -345 0
336 337 -345 0
-336 337 345 0
338 -339 346 0
-338 -339 -346 0
338 339 -346 0
-338 339 346 0
340 -341 347 0
-340 -341 -347 0
340 341 -347 0
-340 341 347 0
342 -343 348 0
-342 -343 -348 0
342 343 -348 0
-342 343 348 0
344 -345 349 0
-344 -345 -349 0
344 345 -349 0
-344 345 349 0
346 -347 350 0
-346 -347 -350 0
346 347 -350 0
-346 347 350 0
348 -349 351 0
-348 -349 -351 0
348 349 -351 0
-348 349 351 0
350 351 0
-350 -351 0
4 6 352 0
-4 6 -352 0
4 -6 -352 0
-4 -6 352 0
7 9 353 0
-7 9 -353 0
7 -9 -353 0
-7 -9 353 0
12 -13 354 0
-12 -13 -354 0
12 13 -354 0
-12 13 354 0
-14 16 355 0
14 16 -355 0
-14 -16 -355 0
14 -16 355 0
17 -18 356 0
-17 -18 -356 0
17 18 -356 0
-17 18 356 0
-19 -20 357 0
19 -20 -357 0
-19 20 -357 0
19 20 357 0
-21 26 358 0
21 26 -358 0
-21 -26 -358 0
21 -26 358 0
-27 31 359 0
27 31 -359 0
-27 -31 -359 0
27 -31 359 0
-33 -34 360 0
33 -34 -360 0
-33 34 -360 0
33 34 360 0
35 37 361 0
-35 37 -361 0
35 -37 -361 0
-35 -37 361 0
41 -42 362 0
-41 -42 -362 0
41 42 -362 0
-41 42 362 0
43 -44 363 0
-43 -44 -363 0
43 44 -363 0
-43 44 363 0
46 -48 364 0
-46 -48 -364 0
46 48 -364 0
-46 48 364 0
351 -352 365 0
-351 -352 -365 0
351 352 -365 0
-351 352 365 0
353 -354 366 0
-353 -354 -366 0
353 354 -366 0
-353 354 366 0
355 -356 367 0
-355 -356 -367 0
355 356 -367 0
-355 356 367 0
357 -358 368 0
-357 -358 -368 0
357 358 -368 0
-357 358 368 0
359 -360 369 0
-359 -360 -369 0
359 360 -369 0
-359 360 369 0
361 -362 370 0
-361 -362 -370 0
361 362 -370 0
-361 362 370 0
363 -364 371 0
-363 -364 -371 0
363 364 -371 0
-363 364 371 0
365 -366 372 0
-365 -366 -372 0
365 366 -372 0
-365 366 372 0
367 -368 373 0
-367 -368 -373 0
367 368 -373 0
-367 368 373 0
369 -370 374 0
-369 -370 -374 0
369 370 -374 0
-369 370 374 0
371 -372 375 0
-371 -372 -375 0
371 372 -375 0
-371 372 375 0
373 -374 376 0
-373 -374 -376 0
373 374 -376 0
-373 374 376 0
375 376 0
-375 -376 0
-1 2 377 0
1 2 -377 0
-1 -2 -377 0
1 -2 377 0
-5 7 378 0
5 7 -378 0
-5 -7 -378 0
5 -7 378 0
9 -10 379 0
-9 -10 -379 0
9 10 -379 0
-9 10 379 0
13 16 380 0
-13 16 -380 0
13 -16 -380 0
-13 -16 380 0
17 19 381 0
-17 19 -381 0
17 -19 -381 0
-17 -19 381 0
20 21 382 0
-20 21 -382 0
20 -21 -382 0
-20 -21 382 0
22 25 383 0
-22 25 -383 0
22 -25 -383 0
-22 -25 383 0
28 29 384 0
-28 29 -384 0
28 -29 -384 0
-28 -29 384 0
30 -33 385 0
-30 -33 -385 0
30 33 -385 0
-30 33 385 0
36 39 386 0
-36 39 -386 0
36 -39 -386 0
-36 -39 386 0
40 41 387 0
-40 41 -387 0
40 -41 -387 0
-40 -41 387 0
42 44 388 0
-42 44 -388 0
42 -44 -388 0
-42 -44 388 0
45 -46 389 0
-45 -46 -389 0
45 46 -389 0
-45 46 389 0
376 -377 390 0
-376 -377 -390 0
376 377 -390 0
-376 377 390 0
378 -379 391 0
-378 -379 -391 0
378 379 -391 0
-378 379 391 0
380 -381 392 0
-380 -381 -392 0
380 381 -392 0
-380 381 392 0
382 -383 393 0
-382 -383 -393 0
382 383 -393 0
-382 383 393 0
384 -385 394 0
-384 -385 -394 0
384 385 -394 0
-384 385 394 0
386 -387 395 0
-386 -387 -395 0
386 387 -395 0
-386 387 395 0
388 -389 396 0
-388 -389 -396 0
388 389 -396 0
-388 389 396 0
390 -391 397 0
-390 -391 -397 0
390 391 -397 0
-390 391 397 0
392 -393 398 0
-392 -393 -398 0
392 393 -398 0
-392 393 398 0
394 -395 399 0
-394 -395 -399 0
394 395 -399 0
-394 395 399 0
396 -397 400 0
-396 -397 -400 0
396 397 -400 0
-396 397 400 0
398 -399 401 0
-398 -399 -401 0
398 399 -401 0
-398 399 401 0
400 401 0
-400 -401 0
-5 -8 402 0
5 -8 -402 0
-5 8 -402 0
5 8 402 0
9 -11 403 0
-9 -11 -403 0
9 11 -403 0
-9 11 403 0
-15 -17 404 0
15 -17 -404 0
-15 17 -404 0
15 17 404 0
19 23 405 0
-19 23 -405 0
19 -23 -405 0
-19 -23 405 0
24 26 406 0
-24 26 -406 0
24 -26 -406 0
-24 -26 406 0
-27 -29 407 0
27 -29 -407 0
-27 29 -407 0
27 29 407 0
-30 31 408 0
30 31 -408 0
-30 -31 -408 0
30 -31 408 0
-34 -35 409 0
34 -35 -409 0
-34 35 -409 0
34 35 409 0
36 39 410 0
-36 39 -410 0
36 -39 -410 0
-36 -39 410 0
43 -46 411 0
-43 -46 -411 0
43 46 -411 0
-43 46 411 0
-48 50 412 0
48 50 -412 0
-48 -50 -412 0
48 -50 412 0
402 -403 413 0
-402 -403 -413 0
402 403 -413 0
-402 403 413 0
404 -405 414 0
-404 -405 -414 0
404 405 -414 0
-404 405 414 0
406 -407 415 0
-406 -407 -415 0
406 407 -415 0
-406 407 415 0
408 -409 416 0
-408 -409 -416 0
408 409 -416 0
-408 409 416 0
410 -411 417 0
-410 -411 -417 0
410 411 -417 0
-410 411 417 0
412 -413 418 0
-412 -413 -418 0
412 413 -418 0
-412 413 418 0
414 -415 419 0
-414 -415 -419 0
414 415 -419 0
-414 415 419 0
416 -417 420 0
-416 -417 -420 0
416 417 -420 0
-416 417 420 0
-418 -419 420 0
418 -419 -420 0
-418 419 -420 0
418 419 420 0
1 3 421 0
-1 3 -421 0
1 -3 -421 0
-1 -3 421 0
5 8 422 0
-5 8 -422 0
5 -8 -422 0
-5 -8 422 0
-10 -11 423 0
10 -11 -423 0
-10 11 -423 0
10 11 423 0
16 19 424 0
-16 19 -424 0
16 -19 -424 0
-16 -19 424 0
-20 -21 425 0
20 -21 -425 0
-20 21 -425 0
20 21 425 0
-26 -32 426 0
26 -32 -426 0
-26 32 -426 0
26 32 426 0
35 -38 427 0
-35 -38 -427 0
35 38 -427 0
-35 38 427 0
40 42 428 0
-40 42 -428 0
40 -42 -428 0
-40 -42 428 0
43 45 429 0
-43 45 -429 0
43 -45 -429 0
-43 -45 429 0
46 -48 430 0
-46 -48 -430 0
46 48 -430 0
-46 48 430 0
49 -50 431 0
-49 -50 -431 0
49 50 -431 0
-49 50 431 0
421 -422 432 0
-421 -422 -432 0
421 422 -432 0
-421 422 432 0
423 -424 433 0
-423 -424 -433 0
423 424 -433 0
-423 424 433 0
425 -426 434 0
-425 -426 -434 0
425 426 -434 0
-425 426 434 0
427 -428 435 0
-427 -428 -435 0
427 428 -435 0
-427 428 435 0
429 -430 436 0
-429 -430 -436 0
429 430 -436 0
-429 430 436 0
431 -432 437 0
-431 -432 -437 0
431 432 -437 0
-431 432 437 0
433 -434 438 0
-433 -434 -438 0
433 434 -438 0
-433 434 438 0
435 -436 439 0
-435 -436 -439 0
435 436 -439 0
-435 436 439 0
-437 -438 439 0
437 -438 -439 0
-437 438 -439 0
437 438 439 0
1 -2 440 0
-1 -2 -440 0
1 2 -440 0
-1 2 440 0
-3 5 441 0
3 5 -441 0
-3 -5 -441 0
3 -5 441 0
6 7 442 0
-6 7 -442 0
6 -7 -442 0
-6 -7 442 0
8 -10 443 0
-8 -10 -443 0
8 10 -443 0
-8 10 443 0
11 19 444 0
-11 19 -444 0
11 -19 -444 0
-11 -19 444 0
-22 25 445 0
22 25 -445 0
-22 -25 -445 0
22 -25 445 0
26 27 446 0
-26 27 -446 0
26 -27 -446 0
-26 -27 446 0
-28 -29 447 0
28 -29 -447 0
-28 29 -447 0
28 29 447 0
-30 32 448 0
30 32 -448 0
-30 -32 -448 0
30 -32 448 0
-35 38 449 0
35 38 -449 0
-35 -38 -449 0
35 -38 449 0
40 -41 450 0
-40 -41 -450 0
40 41 -450 0
-40 41 450 0
-47 -49 451 0
47 -49 -451 0
-47 49 -451 0
47 49 451 0
439 -440 452 0
-439 -440 -452 0
439 440 -452 0
-439 440 452 0
441 -442 453 0
-441 -442 -453 0
441 442 -453 0
-441 442 453 0
443 -444 454 0
-443 -444 -454 0
443 444 -454 0
-443 444 454 0
445 -446 455 0
-445 -446 -455 0
445 446 -455 0
-445 446 455 0
447 -448 456 0
-447 -448 -456 0
447 448 -456 0
-447 448 456 0
449 -450 457 0
-449 -450 -457 0
449 450 -457 0
-449 450 457 0
451 -452 458 0
-451 -452 -458 0
451 452 -458 0
-451 452 458 0
453 -454 459 0
-453 -454 -459 0
453 454 -459 0
-453 454 459 0
455 -456 460 0
-455 -456 -460 0
455 456 -460 0
-455 456 460 0
457 -458 461 0
-457 -458 -461 0
457 458 -461 0
-457 458 461 0
459 -460 462 0
-459 -460 -462 0
459 460 -462 0
-459 460 462 0
461 462 0
-461 -462 0
-2 -11 463 0
2 -11 -463 0
-2 11 -463 0
2 11 463 0
13 -14 464 0
-13 -14 -464 0
13 14 -464 0
-13 14 464 0
15 18 465 0
-15 18 -465 0
15 -18 -465 0
-15 -18 465 0
19 20 466 0
-19 20 -466 0
19 -20 -466 0
-19 -20 466 0
-21 22 467 0
21 22 -467 0
-21 -22 -467 0
21 -22 467 0
26 -28 468 0
-26 -28 -468 0
26 28 -468 0
-26 28 468 0
-30 -32 469 0
30 -32 -469 0
-30 32 -469 0
30 32 469 0
35 -36 470 0
-35 -36 -470 0
35 36 -470 0
-35 36 470 0
-37 -39 471 0
37 -39 -471 0
-37 39 -471 0
37 39 471 0
40 -41 472 0
-40 -41 -472 0
40 41 -472 0
-40 41 472 0
-44 45 473 0
44 45 -473 0
-44 -45 -473 0
44 -45 473 0
-46 49 474 0
46 49 -474 0
-46 -49 -474 0
46 -49 474 0
463 -464 475 0
-463 -464 -475 0
463 464 -475 0
-463 464 475 0
465 -466 476 0
-465 -466 -476 0
465 466 -476 0
-465 466 476 0
467 -468 477 0
-467 -468 -477 0
467 468 -477 0
-467 468 477 0
469 -470 478 0
-469 -470 -478 0
469 470 -478 0
-469 470 478 0
471 -472 479 0
-471 -472 -479 0
471 472 -479 0
-471 472 479 0
473 -474 480 0
-473 -474 -480 0
473 474 -480 0
-473 474 480 0
475 -476 481 0
-475 -476 -481 0
475 476 -481 0
-475 476 481 0
477 -478 482 0
-477 -478 -482 0
477 478 -482 0
-477 478 482 0
479 -480 483 0
-479 -480 -483 0
479 480 -483 0
-479 480 483 0
-481 -482 483 0
481 -482 -483 0
-481 482 -483 0
481 482 483 0
-1 7 484 0
1 7 -484 0
-1 -7 -484 0
1 -7 484 0
9 13 485 0
-9 13 -485 0
9 -13 -485 0
-9 -13 485 0
-15 18 486 0
15 18 -486 0
-15 -18 -486 0
15 -18 486 0
-19 -21 487 0
19 -21 -487 0
-19 21 -487 0
19 21 487 0
-25 26 488 0
25 26 -488 0
-25 -26 -488 0
25 -26 488 0
-28 30 489 0
28 30 -489 0
-28 -30 -489 0
28 -30 489 0
31 -34 490 0
-31 -34 -490 0
31 34 -490 0
-31 34 490 0
-36 38 491 0
36 38 -491 0
-36 -38 -491 0
36 -38 491 0
39 -41 492 0
-39 -41 -492 0
39 41 -492 0
-39 41 492 0
-42 45 493 0
42 45 -493 0
-42 -45 -493 0
42 -45 493 0
47 -48 494 0
-47 -48 -494 0
47 48 -494 0
-47 48 494 0
49 50 495 0
-49 50 -495 0
49 -50 -495 0
-49 -50 495 0
484 -485 496 0
-484 -485 -496 0
484 485 -496 0
-484 485 496 0
486 -487 497 0
-486 -487 -497 0
486 487 -497 0
-486 487 497 0
488 -489 498 0
-488 -489 -498 0
488 489 -498 0
-488 489 498 0
490 -491 499 0
-490 -491 -499 0
490 491 -499 0
-490 491 499 0
492 -493 500 0
-492 -493 -500 0
492 493 -500 0
-492 493 500 0
494 -495 501 0
-494 -495 -501 0
494 495 -501 0
-494 495 501 0
496 -497 502 0
-496 -497 -502 0
496 497 -502 0
-496 497 502 0
498 -499 503 0
-498 -499 -503 0
498 499 -503 0
-498 499 503 0
500 -501 504 0
-500 -501 -504 0
500 501 -504 0
-500 501 504 0
-502 -503 504 0
502 -503 -504 0
-502 503 -504 0
502 503 504 0
-12 505 0
-24 505 0
-12 -24 506 0
-23 505 0
-12 -23 506 0
-24 -23 506 0
-12 -24 -23 507 0
-22 508 0
-21 508 0
-22 -21 509 0
-20 508 0
-22 -20 509 0
-21 -20 509 0
-22 -21 -20 510 0
-505 511 0
-506 512 0
-507 513 0
-508 511 0
-509 512 0
-510 513 0
-505 -508 512 0
-505 -509 513 0
-505 -510 514 0
-506 -508 513 0
-506 -509 514 0
-506 -510 515 0
-507 -508 514 0
-507 -509 515 0
-507 -510 516 0
-19 517 0
-18 517 0
-19 -18 518 0
-17 517 0
-19 -17 518 0
-18 -17 518 0
-19 -18 -17 519 0
-16 520 0
-15 520 0
-16 -15 521 0
-14 520 0
-16 -14 521 0
-15 -14 521 0
-16 -15 -14 522 0
-517 523 0
-518 524 0
-519 525 0
-520 523 0
-521 524 0
-522 525 0
-517 -520 524 0
-517 -521 525 0
-517 -522 526 0
-518 -520 525 0
-518 -521 526 0
-518 -522 527 0
-519 -520 526 0
-519 -521 527 0
-519 -522 528 0
-13 529 0
-25 529 0
-13 -25 530 0
-11 529 0
-13 -11 530 0
-25 -11 530 0
-13 -25 -11 531 0
-10 532 0
-9 532 0
-10 -9 533 0
-8 532 0
-10 -8 533 0
-9 -8 533 0
-10 -9 -8 534 0
-529 535 0
-530 536 0
-531 537 0
-532 535 0
-533 536 0
-534 537 0
-529 -532 536 0
-529 -533 537 0
-529 -534 538 0
-530 -532 537 0
-530 -533 538 0
-530 -534 539 0
-531 -532 538 0
-531 -533 539 0
-531 -534 540 0
-7 541 0
-6 541 0
-7 -6 542 0
-5 541 0
-7 -5 542 0
-6 -5 542 0
-7 -6 -5 543 0
-4 544 0
-3 544 0
-4 -3 545 0
-2 546 0
-1 546 0
-2 -1 547 0
-37 546 0
-2 -37 547 0
-1 -37 547 0
-2 -1 -37 548 0
-544 549 0
-545 550 0
-546 549 0
-547 550 0
-548 551 0
-544 -546 550 0
-544 -547 551 0
-544 -548 552 0
-545 -546 551 0
-545 -547 552 0
-545 -548 553 0
-541 554 0
-542 555 0
-543 556 0
-549 554 0
-550 555 0
-551 556 0
-552 557 0
-553 558 0
-541 -549 555 0
-541 -550 556 0
-541 -551 557 0
-541 -552 558 0
-541 -553 559 0
-542 -549 556 0
-542 -550 557 0
-542 -551 558 0
-542 -552 559 0
-542 -553 560 0
-543 -549 557 0
-543 -550 558 0
-543 -551 559 0
-543 -552 560 0
-543 -553 561 0
-49 562 0
-48 562 0
-49 -48 563 0
-47 562 0
-49 -47 563 0
-48 -47 563 0
-49 -48 -47 564 0
-46 565 0
-45 565 0
-46 -45 566 0
-44 567 0
-43 567 0
-44 -43 568 0
-42 567 0
-44 -42 568 0
-43 -42 568 0
-44 -43 -42 569 0
-565 570 0
-566 571 0
-567 570 0
-568 571 0
-569 572 0
-565 -567 571 0
-565 -568 572 0
-565 -569 573 0
-566 -567 572 0
-566 -568 573 0
-566 -569 574 0
-562 575 0
-563 576 0
-564 577 0
-570 575 0
-571 576 0
-572 577 0
-573 578 0
-574 579 0
-562 -570 576 0
-562 -571 577 0
-562 -572 578 0
-562 -573 579 0
-562 -574 580 0
-563 -570 577 0
-563 -571 578 0
-563 -572 579 0
-563 -573 580 0
-563 -574 581 0
-564 -570 578 0
-564 -571 579 0
-564 -572 580 0
-564 -573 581 0
-564 -574 582 0
-41 583 0
-40 583 0
-41 -40 584 0
-39 583 0
-41 -39 584 0
-40 -39 584 0
-41 -40 -39 585 0
-38 586 0
-50 586 0
-38 -50 587 0
-36 588 0
-35 588 0
-36 -35 589 0
-34 588 0
-36 -34 589 0
-35 -34 589 0
-36 -35 -34 590 0
-586 591 0
-587 592 0
-588 591 0
-589 592 0
-590 593 0
-586 -588 592 0
-586 -589 593 0
-586 -590 594 0
-587 -588 593 0
-587 -589 594 0
-587 -590 595 0
-583 596 0
-584 597 0
-585 598 0
-591 596 0
-592 597 0
-593 598 0
-594 599 0
-595 600 0
-583 -591 597 0
-583 -592 598 0
-583 -593 599 0
-583 -594 600 0
-583 -595 601 0
-584 -591 598 0
-584 -592 599 0
-584 -593 600 0
-584 -594 601 0
-584 -595 602 0
-585 -591 599 0
-585 -592 600 0
-585 -593 601 0
-585 -594 602 0
-585 -595 603 0
-33 604 0
-32 604 0
-33 -32 605 0
-31 604 0
-33 -31 605 0
-32 -31 605 0
-33 -32 -31 606 0
-30 607 0
-29 607 0
-30 -29 608 0
-28 609 0
-27 609 0
-28 -27 610 0
-26 609 0
-28 -26 610 0
-27 -26 610 0
-28 -27 -26 611 0
-607 612 0
-608 613 0
-609 612 0
-610 613 0
-611 614 0
-607 -609 613 0
-607 -610 614 0
-607 -611 615 0
-608 -609 614 0
-608 -610 615 0
-608 -611 616 0
-604 617 0
-605 618 0
-606 619 0
-612 617 0
-613 618 0
-614 619 0
-615 620 0
-616 621 0
-604 -612 618 0
-604 -613 619 0
-604 -614 620 0
-604 -615 621 0
-604 -616 622 0
-605 -612 619 0
-605 -613 620 0
-605 -614 621 0
-605 -615 622 0
-605 -616 623 0
-606 -612 620 0
-606 -613 621 0
-606 -614 622 0
-606 -615 623 0
-606 -616 624 0
-596 625 0
-598 626 0
-600 627 0
-602 628 0
-617 625 0
-619 626 0
-621 627 0
-623 628 0
-596 -617 626 0
-596 -619 627 0
-596 -621 628 0
-596 -623 629 0
-598 -617 627 0
-598 -619 628 0
-598 -621 629 0
-598 -623 630 0
-600 -617 628 0
-600 -619 629 0
-600 -621 630 0
-602 -617 629 0
-602 -619 630 0
-597 631 0
-601 632 0
-618 631 0
-622 632 0
-597 -618 632 0
-597 -622 633 0
-601 -618 633 0
-599 634 0
-603 635 0
-620 634 0
-624 635 0
-599 -620 635 0
-632 636 0
-634 636 0
-632 -634 637 0
-633 638 0
-635 638 0
-633 -635 639 0
-626 640 0
-631 640 0
-626 -631 641 0
-627 642 0
-636 642 0
-627 -636 643 0
-628 644 0
-637 644 0
-628 -637 645 0
-629 646 0
-638 646 0
-629 -638 647 0
-630 648 0
-639 648 0
-630 -639 649 0
-575 650 0
-577 651 0
-579 652 0
-581 653 0
-625 650 0
-641 651 0
-643 652 0
-645 653 0
-647 654 0
-649 655 0
-575 -625 651 0
-575 -641 652 0
-575 -643 653 0
-575 -645 654 0
-575 -647 655 0
-577 -625 652 0
-577 -641 653 0
-577 -643 654 0
-577 -645 655 0
-579 -625 653 0
-579 -641 654 0
-579 -643 655 0
-581 -625 654 0
-581 -641 655 0
-576 656 0
-580 657 0
-640 656 0
-644 657 0
-648 658 0
-576 -640 657 0
-576 -644 658 0
-580 -640 658 0
-578 659 0
-582 660 0
-642 659 0
-646 660 0
-578 -642 660 0
-657 661 0
-659 661 0
-657 -659 662 0
-658 663 0
-660 663 0
-658 -660 664 0
-651 665 0
-656 665 0
-651 -656 666 0
-652 667 0
-661 667 0
-652 -661 668 0
-653 669 0
-662 669 0
-653 -662 670 0
-654 671 0
-663 671 0
-654 -663 672 0
-655 673 0
-664 673 0
-655 -664 674 0
-554 675 0
-556 676 0
-558 677 0
-560 678 0
-650 675 0
-666 676 0
-668 677 0
-670 678 0
-672 679 0
-674 680 0
-554 -650 676 0
-554 -666 677 0
-554 -668 678 0
-554 -670 679 0
-554 -672 680 0
-556 -650 677 0
-556 -666 678 0
-556 -668 679 0
-556 -670 680 0
-558 -650 678 0
-558 -666 679 0
-558 -668 680 0
-560 -650 679 0
-560 -666 680 0
-555 681 0
-559 682 0
-665 681 0
-669 682 0
-673 683 0
-555 -665 682 0
-555 -669 683 0
-559 -665 683 0
-557 684 0
-561 685 0
-667 684 0
-671 685 0
-557 -667 685 0
-682 686 0
-684 686 0
-682 -684 687 0
-683 688 0
-685 688 0
-683 -685 689 0
-676 690 0
-681 690 0
-676 -681 691 0
-677 692 0
-686 692 0
-677 -686 693 0
-678 694 0
-687 694 0
-678 -687 695 0
-679 696 0
-688 696 0
-679 -688 697 0
-680 698 0
-689 698 0
-680 -689 699 0
-535 700 0
-537 701 0
-539 702 0
-675 700 0
-691 701 0
-693 702 0
-695 703 0
-697 704 0
-699 705 0
-535 -675 701 0
-535 -691 702 0
-535 -693 703 0
-535 -695 704 0
-535 -697 705 0
-537 -675 702 0
-537 -691 703 0
-537 -693 704 0
-537 -695 705 0
-539 -675 703 0
-539 -691 704 0
-539 -693 705 0
-536 706 0
-538 707 0
-540 708 0
-690 706 0
-692 707 0
-694 708 0
-696 709 0
-698 710 0
-536 -690 707 0
-536 -692 708 0
-536 -694 709 0
-536 -696 710 0
-538 -690 708 0
-538 -692 709 0
-538 -694 710 0
-540 -690 709 0
-540 -692 710 0
-701 711 0
-706 711 0
-701 -706 712 0
-702 713 0
-707 713 0
-702 -707 714 0
-703 715 0
-708 715 0
-703 -708 716 0
-704 717 0
-709 717 0
-704 -709 718 0
-705 719 0
-710 719 0
-705 -710 720 0
-523 721 0
-525 722 0
-527 723 0
-700 721 0
-712 722 0
-714 723 0
-716 724 0
-718 725 0
-720 726 0
-523 -700 722 0
-523 -712 723 0
-523 -714 724 0
-523 -716 725 0
-523 -718 726 0
-525 -700 723 0
-525 -712 724 0
-525 -714 725 0
-525 -716 726 0
-527 -700 724 0
-527 -712 725 0
-527 -714 726 0
-524 727 0
-526 728 0
-528 729 0
-711 727 0
-713 728 0
-715 729 0
-717 730 0
-719 731 0
-524 -711 728 0
-524 -713 729 0
-524 -715 730 0
-524 -717 731 0
-526 -711 729 0
-526 -713 730 0
-526 -715 731 0
-528 -711 730 0
-528 -713 731 0
-722 732 0
-727 732 0
-722 -727 733 0
-723 734 0
-728 734 0
-723 -728 735 0
-724 736 0
-729 736 0
-724 -729 737 0
-725 738 0
-730 738 0
-725 -730 739 0
-726 740 0
-731 740 0
-726 -731 741 0
-511 742 0
-513 743 0
-515 744 0
-721 742 0
-733 743 0
-735 744 0
-737 745 0
-739 746 0
-741 747 0
-511 -721 743 0
-511 -733 744 0
-511 -735 745 0
-511 -737 746 0
-511 -739 747 0
-513 -721 744 0
-513 -733 745 0
-513 -735 746 0
-513 -737 747 0
-515 -721 745 0
-515 -733 746 0
-515 -735 747 0
-512 748 0
-514 749 0
-516 750 0
-732 748 0
-734 749 0
-736 750 0
-738 751 0
-740 752 0
-512 -732 749 0
-512 -734 750 0
-512 -736 751 0
-512 -738 752 0
-514 -732 750 0
-514 -734 751 0
-514 -736 752 0
-516 -732 751 0
-516 -734 752 0
-743 753 0
-748 753 0
-743 -748 754 0
-744 755 0
-749 755 0
-744 -749 756 0
-745 757 0
-750 757 0
-745 -750 758 0
-746 759 0
-751 759 0
-746 -751 760 0
-747 761 0
-752 761 0
-747 -752 762 0
-762 0
